50
214
235
235
189
218
230
183
211
209
208
191
189
206
184
225
190
235
230
172
212
215
197
216
224
226
187
200
213
201
196
195
185
177
201
231
211
201
195
192
194
214
188
182
214
239
215
173
215
213
180
